# Solution for model r10_t27_m9_2 Batch Number: 1
# Finished Task: 27 / 27
# Makespan: 446.0, Total Distance: 258.0, Total Time: 122.4060
# R O S F Batch
0 0 15 0.0 0.0 -1
1 1 28 0.0 0.0 -1
2 2 23 0.0 0.0 -1
3 3 32 0.0 0.0 -1
4 4 12 0.0 0.0 -1
5 5 25 0.0 0.0 -1
6 6 18 0.0 0.0 -1
7 7 24 0.0 0.0 -1
8 8 35 0.0 0.0 -1
9 9 21 0.0 0.0 -1
10 4 20 192.0 219.0 0
11 6 17 79.0 103.0 0
12 4 10 168.0 192.0 0
13 9 36 325.0 357.0 0
14 9 -1 424.0 446.0 0
15 0 19 95.0 115.0 0
16 3 -1 399.0 436.0 0
17 6 -1 411.0 445.0 0
18 6 11 33.0 66.0 0
19 0 30 284.0 311.0 0
20 4 -1 248.0 279.0 0
21 9 13 249.0 283.0 0
22 3 16 362.0 387.0 0
23 2 33 241.0 262.0 0
24 7 27 389.0 415.0 0
25 5 26 366.0 388.0 0
26 5 -1 421.0 445.0 0
27 7 -1 424.0 444.0 0
28 1 31 327.0 351.0 0
29 2 -1 366.0 403.0 0
30 0 -1 374.0 411.0 0
31 1 -1 358.0 384.0 0
32 3 22 46.0 71.0 0
33 2 29 262.0 285.0 0
34 8 -1 392.0 416.0 0
35 8 34 27.0 60.0 0
36 9 14 393.0 424.0 0
